DIMACS_lns/graph-1000-354.col
p edge 1000 1850
e 2 664
e 2 417
e 2 266
e 2 279
e 2 959
e 2 962
e 2 368
e 2 423
e 2 828
e 2 340
e 3 266
e 3 528
e 3 810
e 3 892
e 3 929
e 3 626
e 4 615
e 4 464
e 4 704
e 4 113
e 4 597
e 4 295
e 4 420
e 5 258
e 5 512
e 5 377
e 5 132
e 5 549
e 5 972
e 6 979
e 6 895
e 6 580
e 6 967
e 7 399
e 7 1000
e 7 214
e 7 344
e 7 392
e 7 459
e 7 801
e 7 141
e 7 146
e 9 272
e 9 709
e 9 911
e 10 417
e 10 641
e 10 28
e 10 545
e 10 775
e 11 228
e 11 373
e 11 993
e 12 631
e 12 792
e 12 707
e 12 393
e 12 468
e 12 107
e 16 724
e 16 166
e 16 870
e 16 635
e 16 455
e 16 760
e 16 996
e 18 340
e 18 105
e 18 158
e 20 702
e 20 531
e 20 303
e 20 354
e 20 788
e 21 538
e 21 100
e 21 49
e 21 615
e 21 523
e 21 373
e 21 909
e 21 323
e 22 533
e 22 900
e 22 497
e 22 934
e 22 929
e 22 133
e 22 195
e 22 667
e 24 263
e 24 863
e 24 810
e 24 851
e 24 957
e 24 530
e 25 486
e 25 933
e 25 944
e 25 165
e 25 56
e 26 572
e 26 777
e 26 54
e 26 693
e 26 275
e 26 978
e 27 429
e 27 708
e 27 153
e 27 341
e 28 942
e 28 901
e 28 907
e 28 487
e 28 449
e 28 218
e 28 856
e 28 484
e 29 110
e 29 255
e 29 653
e 29 81
e 30 806
e 30 91
e 30 399
e 31 113
e 31 991
e 31 830
e 31 375
e 31 392
e 31 420
e 31 952
e 31 766
e 31 305
e 33 814
e 33 395
e 33 960
e 33 511
e 33 214
e 33 472
e 34 83
e 34 147
e 34 122
e 34 891
e 35 931
e 35 432
e 35 760
e 35 178
e 35 906
e 36 464
e 36 393
e 36 129
e 37 677
e 37 920
e 37 375
e 38 491
e 38 731
e 38 608
e 38 79
e 42 660
e 42 702
e 42 928
e 42 464
e 42 640
e 42 154
e 42 575
e 42 193
e 43 115
e 43 530
e 43 906
e 44 322
e 44 991
e 44 793
e 45 712
e 45 213
e 45 961
e 45 936
e 46 99
e 46 576
e 46 684
e 47 268
e 47 55
e 47 606
e 49 542
e 49 657
e 49 617
e 49 628
e 49 182
e 49 245
e 50 958
e 50 719
e 50 475
e 50 908
e 50 430
e 52 407
e 52 526
e 52 491
e 52 790
e 52 201
e 52 960
e 52 530
e 52 670
e 53 950
e 53 772
e 53 469
e 53 872
e 53 657
e 53 95
e 53 824
e 53 533
e 53 275
e 54 747
e 54 131
e 54 302
e 54 946
e 55 498
e 55 101
e 55 827
e 55 526
e 55 960
e 55 702
e 55 927
e 55 735
e 56 98
e 56 428
e 57 501
e 57 526
e 57 105
e 57 380
e 57 207
e 59 962
e 59 513
e 59 565
e 59 460
e 59 800
e 59 407
e 59 566
e 59 279
e 59 605
e 60 570
e 60 930
e 60 356
e 60 841
e 60 371
e 62 583
e 62 218
e 62 624
e 64 160
e 64 409
e 64 279
e 64 663
e 64 835
e 64 469
e 65 894
e 65 756
e 65 540
e 65 580
e 65 855
e 66 950
e 66 906
e 66 722
e 66 572
e 66 596
e 67 303
e 67 214
e 67 297
e 67 220
e 67 423
e 68 420
e 68 513
e 68 450
e 68 434
e 69 349
e 69 776
e 69 298
e 71 289
e 71 277
e 71 381
e 72 491
e 72 757
e 72 618
e 72 225
e 72 916
e 72 570
e 74 811
e 74 717
e 74 743
e 74 468
e 74 152
e 74 839
e 74 848
e 75 230
e 75 127
e 75 436
e 75 563
e 78 477
e 78 640
e 78 938
e 79 638
e 79 538
e 79 606
e 81 209
e 81 960
e 81 686
e 82 356
e 82 596
e 82 841
e 82 387
e 82 709
e 82 544
e 82 669
e 82 218
e 83 945
e 83 88
e 83 275
e 83 928
e 83 949
e 84 460
e 84 318
e 84 880
e 84 133
e 84 353
e 87 783
e 87 107
e 87 860
e 87 715
e 87 947
e 87 491
e 87 992
e 87 105
e 87 508
e 88 209
e 88 798
e 88 836
e 91 942
e 91 187
e 92 764
e 92 549
e 92 717
e 93 753
e 93 561
e 93 948
e 95 419
e 95 507
e 95 265
e 96 589
e 96 342
e 96 954
e 96 645
e 97 837
e 97 454
e 97 629
e 97 371
e 98 660
e 98 103
e 98 743
e 98 295
e 98 549
e 99 472
e 99 723
e 99 651
e 99 858
e 99 137
e 99 735
e 100 153
e 100 999
e 100 344
e 100 188
e 101 304
e 101 391
e 101 727
e 102 202
e 102 980
e 102 377
e 102 811
e 102 264
e 103 122
e 103 896
e 103 258
e 103 489
e 103 590
e 105 708
e 105 552
e 106 396
e 106 244
e 106 254
e 106 855
e 106 367
e 106 115
e 106 938
e 107 206
e 107 397
e 107 118
e 107 346
e 108 861
e 108 704
e 108 789
e 108 541
e 108 821
e 108 816
e 110 631
e 110 449
e 110 338
e 110 413
e 110 868
e 111 718
e 111 800
e 111 793
e 111 545
e 111 300
e 111 501
e 113 803
e 113 154
e 113 202
e 114 258
e 114 568
e 114 949
e 114 974
e 115 166
e 115 778
e 115 458
e 115 204
e 115 415
e 115 756
e 116 966
e 116 242
e 116 272
e 116 665
e 116 411
e 116 977
e 117 746
e 117 438
e 117 300
e 117 472
e 117 978
e 117 413
e 118 881
e 118 701
e 118 748
e 118 286
e 118 651
e 120 589
e 120 689
e 120 137
e 121 637
e 121 544
e 121 707
e 121 145
e 122 461
e 122 552
e 122 373
e 124 457
e 124 840
e 124 737
e 125 940
e 125 141
e 125 130
e 127 350
e 127 597
e 129 799
e 129 265
e 129 305
e 130 935
e 130 393
e 131 792
e 131 343
e 131 909
e 132 922
e 132 933
e 132 856
e 132 685
e 132 824
e 133 144
e 133 277
e 133 659
e 133 349
e 133 177
e 137 712
e 137 436
e 137 142
e 137 743
e 137 277
e 137 216
e 138 841
e 138 296
e 138 757
e 138 256
e 138 824
e 140 958
e 140 462
e 140 975
e 140 680
e 140 866
e 140 880
e 140 145
e 141 677
e 141 953
e 141 872
e 142 457
e 142 452
e 142 431
e 144 807
e 144 372
e 144 487
e 144 315
e 144 656
e 145 399
e 146 708
e 146 356
e 146 644
e 146 652
e 146 984
e 147 202
e 147 667
e 147 495
e 147 481
e 148 190
e 148 764
e 148 897
e 148 661
e 148 725
e 148 231
e 148 509
e 152 501
e 152 562
e 152 750
e 152 632
e 153 272
e 154 703
e 154 788
e 154 969
e 155 431
e 155 315
e 155 325
e 157 406
e 157 975
e 157 828
e 158 840
e 158 591
e 158 570
e 158 487
e 158 659
e 158 322
e 159 597
e 159 905
e 159 380
e 159 323
e 160 590
e 160 802
e 160 661
e 160 220
e 160 932
e 160 657
e 160 627
e 160 509
e 163 631
e 163 753
e 163 740
e 163 476
e 165 684
e 165 334
e 165 554
e 165 685
e 165 836
e 165 614
e 165 578
e 166 214
e 166 193
e 166 1000
e 166 180
e 166 780
e 166 203
e 167 313
e 167 702
e 167 521
e 167 189
e 168 175
e 168 820
e 168 542
e 169 747
e 169 613
e 169 437
e 169 340
e 169 236
e 169 793
e 170 291
e 170 757
e 170 686
e 170 479
e 171 342
e 171 953
e 171 990
e 171 931
e 172 454
e 172 755
e 172 907
e 173 883
e 173 256
e 173 628
e 173 632
e 174 900
e 174 248
e 174 814
e 174 832
e 174 830
e 174 884
e 175 410
e 175 338
e 175 180
e 175 485
e 175 387
e 175 503
e 175 443
e 175 644
e 175 954
e 176 308
e 176 301
e 176 369
e 177 896
e 177 936
e 177 766
e 177 870
e 178 820
e 178 486
e 178 460
e 178 713
e 178 472
e 179 404
e 179 519
e 179 430
e 179 951
e 179 561
e 179 497
e 179 966
e 179 718
e 180 883
e 181 695
e 181 404
e 181 865
e 182 194
e 182 966
e 182 184
e 182 978
e 182 411
e 183 839
e 183 325
e 183 210
e 183 563
e 184 901
e 184 283
e 184 303
e 184 206
e 184 894
e 184 209
e 187 221
e 187 603
e 187 347
e 187 495
e 187 374
e 188 512
e 188 842
e 188 963
e 188 676
e 188 775
e 189 965
e 189 680
e 189 402
e 189 606
e 189 725
e 189 723
e 190 776
e 190 314
e 190 956
e 191 464
e 191 815
e 191 381
e 193 539
e 193 235
e 193 657
e 193 323
e 193 516
e 193 384
e 194 986
e 194 810
e 195 927
e 195 982
e 196 596
e 196 490
e 196 820
e 196 827
e 196 632
e 198 376
e 198 660
e 198 993
e 198 590
e 198 545
e 200 855
e 200 201
e 200 727
e 200 657
e 200 658
e 201 646
e 201 810
e 201 735
e 201 306
e 202 649
e 202 338
e 202 221
e 202 780
e 203 534
e 203 945
e 204 547
e 204 444
e 204 798
e 204 533
e 204 981
e 206 798
e 206 854
e 206 618
e 206 623
e 206 475
e 207 496
e 207 786
e 207 258
e 207 674
e 208 228
e 208 687
e 208 566
e 209 846
e 209 323
e 209 610
e 209 936
e 210 609
e 210 623
e 211 734
e 211 901
e 211 231
e 211 680
e 213 260
e 213 555
e 213 435
e 213 637
e 213 251
e 214 631
e 215 615
e 215 438
e 215 536
e 215 375
e 215 632
e 215 744
e 216 319
e 216 861
e 216 979
e 216 463
e 218 688
e 219 278
e 219 459
e 219 910
e 219 417
e 220 568
e 220 597
e 221 830
e 221 953
e 221 623
e 221 828
e 221 441
e 224 755
e 224 971
e 224 493
e 224 749
e 224 884
e 225 458
e 225 719
e 225 519
e 228 371
e 228 682
e 228 386
e 230 497
e 230 425
e 230 703
e 230 967
e 231 421
e 231 753
e 232 519
e 232 739
e 232 301
e 232 255
e 233 733
e 233 914
e 233 892
e 235 545
e 235 522
e 235 548
e 235 325
e 236 982
e 236 535
e 236 640
e 236 537
e 236 526
e 237 539
e 237 504
e 237 737
e 240 350
e 240 351
e 240 457
e 240 737
e 241 286
e 241 916
e 241 743
e 241 762
e 242 652
e 242 275
e 242 244
e 242 466
e 242 956
e 242 501
e 242 710
e 243 530
e 243 545
e 243 591
e 243 464
e 244 949
e 244 582
e 244 798
e 244 478
e 244 350
e 244 526
e 245 402
e 245 465
e 245 606
e 246 247
e 246 928
e 246 648
e 246 314
e 247 491
e 247 575
e 248 425
e 248 471
e 248 828
e 249 511
e 249 733
e 249 517
e 249 935
e 249 930
e 251 469
e 251 677
e 251 377
e 252 940
e 252 796
e 252 661
e 252 276
e 252 973
e 253 920
e 253 973
e 253 410
e 254 669
e 254 960
e 255 630
e 255 317
e 255 756
e 256 757
e 256 734
e 256 653
e 256 331
e 256 996
e 256 590
e 257 279
e 257 819
e 257 565
e 258 305
e 258 368
e 259 669
e 259 745
e 259 314
e 260 725
e 260 834
e 262 279
e 262 752
e 262 501
e 263 798
e 263 909
e 264 867
e 264 701
e 264 666
e 265 840
e 265 545
e 265 799
e 266 808
e 267 501
e 267 895
e 267 517
e 267 802
e 267 712
e 267 478
e 268 462
e 268 520
e 268 311
e 272 495
e 272 704
e 275 835
e 276 554
e 276 920
e 277 311
e 277 788
e 278 819
e 278 739
e 279 350
e 279 522
e 279 369
e 282 825
e 282 973
e 282 610
e 282 551
e 283 487
e 283 653
e 283 502
e 285 489
e 285 533
e 285 685
e 286 791
e 286 372
e 286 890
e 286 430
e 286 378
e 287 767
e 287 330
e 287 402
e 287 867
e 287 657
e 287 803
e 288 656
e 288 996
e 288 722
e 288 989
e 288 829
e 289 356
e 289 370
e 289 899
e 291 539
e 291 504
e 291 806
e 292 939
e 292 356
e 292 848
e 292 470
e 292 354
e 292 304
e 292 609
e 294 820
e 294 517
e 294 816
e 294 897
e 295 746
e 295 722
e 295 866
e 295 982
e 296 791
e 296 461
e 296 345
e 297 549
e 297 709
e 297 801
e 297 995
e 298 549
e 298 897
e 298 737
e 298 801
e 300 979
e 300 460
e 300 567
e 301 895
e 302 849
e 302 461
e 302 624
e 303 462
e 303 811
e 303 657
e 304 964
e 304 980
e 304 551
e 304 618
e 305 722
e 305 322
e 306 462
e 306 787
e 306 493
e 306 334
e 308 539
e 308 696
e 310 944
e 310 551
e 310 424
e 311 967
e 311 692
e 311 525
e 311 667
e 311 804
e 312 825
e 312 688
e 312 772
e 313 398
e 313 537
e 313 402
e 313 911
e 313 428
e 314 315
e 314 429
e 315 527
e 317 485
e 317 793
e 318 580
e 318 486
e 318 972
e 318 477
e 319 630
e 319 457
e 319 637
e 322 373
e 322 952
e 322 437
e 322 695
e 322 855
e 322 811
e 323 713
e 323 992
e 325 959
e 325 723
e 325 521
e 325 916
e 325 679
e 326 755
e 326 779
e 326 832
e 328 648
e 328 897
e 328 695
e 328 628
e 328 448
e 330 563
e 330 591
e 330 718
e 331 616
e 331 981
e 332 360
e 332 667
e 332 371
e 333 489
e 333 951
e 333 498
e 333 685
e 334 611
e 334 367
e 334 539
e 334 905
e 334 641
e 336 449
e 336 682
e 336 705
e 338 944
e 338 481
e 338 415
e 338 500
e 338 489
e 340 541
e 340 996
e 341 618
e 341 626
e 341 757
e 342 847
e 342 992
e 342 538
e 342 392
e 342 841
e 343 848
e 343 724
e 344 513
e 344 739
e 344 880
e 344 583
e 344 667
e 345 645
e 345 495
e 345 631
e 345 464
e 345 717
e 346 709
e 346 458
e 347 349
e 347 750
e 347 839
e 347 995
e 349 881
e 349 509
e 349 455
e 349 754
e 349 799
e 351 367
e 351 440
e 353 780
e 353 476
e 353 747
e 353 786
e 353 522
e 354 626
e 354 682
e 354 470
e 354 458
e 354 834
e 354 418
e 356 723
e 356 884
e 359 689
e 359 702
e 359 452
e 359 974
e 359 420
e 360 717
e 360 629
e 360 792
e 360 472
e 360 910
e 367 461
e 368 572
e 369 665
e 369 938
e 369 568
e 370 711
e 370 411
e 370 889
e 370 561
e 371 674
e 372 473
e 372 695
e 372 769
e 374 724
e 374 420
e 375 974
e 375 789
e 375 465
e 375 649
e 375 474
e 376 910
e 376 989
e 377 953
e 377 964
e 377 517
e 377 614
e 378 509
e 378 788
e 380 996
e 380 584
e 380 417
e 381 419
e 381 509
e 383 961
e 383 516
e 383 474
e 384 430
e 384 410
e 384 423
e 385 651
e 385 991
e 385 457
e 385 908
e 386 586
e 386 968
e 387 628
e 390 721
e 390 610
e 390 776
e 390 576
e 391 894
e 391 648
e 391 758
e 392 624
e 392 1000
e 392 679
e 392 674
e 393 495
e 393 908
e 395 496
e 395 519
e 395 667
e 396 574
e 396 661
e 396 501
e 397 655
e 397 407
e 397 428
e 398 479
e 398 434
e 398 901
e 399 516
e 402 659
e 402 618
e 402 755
e 403 405
e 403 644
e 403 914
e 404 978
e 404 684
e 404 832
e 404 870
e 405 904
e 405 731
e 405 803
e 405 409
e 405 882
e 406 963
e 406 456
e 406 575
e 407 807
e 407 927
e 409 986
e 409 918
e 410 576
e 410 816
e 413 927
e 413 503
e 415 581
e 417 779
e 417 548
e 417 660
e 417 449
e 418 717
e 418 887
e 419 865
e 419 455
e 419 423
e 420 586
e 421 431
e 421 803
e 421 984
e 423 755
e 423 820
e 424 786
e 424 790
e 425 624
e 425 563
e 428 839
e 429 527
e 429 567
e 429 754
e 430 685
e 431 461
e 431 733
e 431 689
e 431 666
e 431 964
e 431 513
e 432 701
e 432 801
e 434 713
e 434 668
e 434 582
e 435 438
e 435 905
e 435 696
e 435 779
e 436 821
e 436 476
e 436 978
e 436 486
e 436 795
e 436 548
e 436 722
e 436 677
e 437 475
e 437 750
e 438 837
e 438 988
e 438 748
e 439 839
e 439 608
e 439 916
e 440 791
e 440 896
e 441 844
e 441 520
e 442 760
e 442 796
e 442 539
e 443 855
e 443 755
e 443 481
e 444 448
e 444 641
e 446 681
e 446 986
e 446 636
e 446 972
e 447 455
e 447 599
e 447 454
e 448 704
e 448 758
e 448 750
e 450 945
e 450 802
e 450 840
e 450 552
e 450 992
e 450 837
e 451 616
e 451 753
e 451 791
e 452 645
e 452 753
e 454 528
e 454 638
e 454 648
e 454 616
e 454 804
e 455 686
e 455 581
e 455 861
e 456 990
e 456 828
e 457 819
e 457 638
e 457 647
e 457 613
e 458 975
e 458 767
e 458 821
e 458 814
e 459 570
e 459 952
e 459 726
e 460 787
e 460 586
e 461 701
e 461 769
e 461 778
e 462 928
e 462 999
e 462 929
e 463 547
e 463 876
e 464 664
e 465 733
e 465 516
e 466 491
e 466 567
e 468 801
e 468 471
e 469 746
e 469 681
e 469 743
e 470 753
e 471 820
e 471 835
e 471 495
e 472 995
e 472 493
e 473 964
e 473 956
e 474 765
e 475 575
e 476 586
e 476 640
e 476 663
e 476 707
e 477 614
e 478 496
e 478 694
e 478 778
e 479 861
e 479 872
e 484 916
e 484 660
e 485 574
e 485 858
e 486 489
e 486 964
e 487 677
e 487 927
e 487 644
e 487 849
e 489 824
e 490 609
e 490 550
e 491 766
e 491 873
e 491 694
e 491 821
e 493 673
e 493 694
e 495 713
e 495 906
e 495 798
e 496 895
e 498 816
e 500 880
e 500 502
e 501 917
e 502 889
e 502 658
e 502 566
e 503 826
e 504 794
e 504 939
e 504 755
e 506 640
e 506 588
e 506 989
e 507 537
e 507 810
e 507 872
e 508 554
e 508 528
e 511 764
e 511 695
e 511 808
e 511 841
e 512 548
e 512 899
e 513 589
e 513 837
e 516 796
e 516 687
e 516 545
e 517 843
e 519 726
e 520 710
e 521 784
e 522 549
e 522 881
e 522 839
e 522 685
e 523 790
e 523 974
e 523 846
e 523 689
e 525 794
e 525 748
e 525 866
e 525 872
e 525 974
e 526 996
e 526 897
e 527 792
e 527 950
e 527 977
e 529 721
e 529 651
e 529 971
e 530 791
e 530 846
e 530 629
e 531 967
e 531 632
e 533 877
e 533 804
e 534 980
e 534 668
e 535 539
e 535 965
e 535 587
e 536 787
e 536 872
e 536 799
e 537 892
e 537 644
e 538 863
e 539 826
e 540 681
e 540 964
e 540 931
e 541 825
e 541 787
e 541 745
e 542 791
e 542 587
e 544 807
e 544 655
e 547 646
e 547 900
e 548 940
e 548 574
e 549 789
e 550 803
e 550 685
e 550 917
e 552 892
e 552 873
e 552 910
e 555 910
e 555 788
e 555 729
e 561 758
e 561 731
e 561 828
e 561 749
e 562 588
e 562 910
e 563 715
e 563 865
e 563 801
e 563 907
e 564 960
e 564 749
e 564 932
e 565 988
e 565 846
e 565 947
e 565 965
e 566 922
e 566 800
e 566 721
e 567 685
e 567 951
e 567 617
e 567 935
e 568 968
e 568 596
e 570 632
e 570 665
e 572 776
e 573 896
e 573 846
e 573 692
e 573 696
e 573 630
e 574 647
e 574 591
e 576 900
e 578 605
e 578 910
e 580 810
e 581 615
e 581 794
e 581 622
e 581 922
e 582 669
e 582 819
e 582 841
e 582 766
e 583 883
e 583 972
e 583 984
e 583 892
e 584 843
e 584 722
e 586 693
e 586 928
e 586 649
e 586 936
e 587 719
e 588 930
e 588 811
e 588 775
e 589 936
e 590 828
e 591 981
e 597 816
e 597 820
e 597 712
e 597 709
e 599 680
e 599 681
e 599 664
e 599 992
e 603 918
e 603 866
e 603 762
e 605 829
e 606 692
e 606 917
e 606 911
e 608 812
e 608 705
e 609 791
e 610 951
e 611 889
e 611 685
e 613 622
e 613 627
e 614 946
e 614 655
e 616 819
e 617 775
e 617 783
e 618 666
e 618 709
e 618 998
e 622 656
e 623 988
e 624 630
e 624 685
e 626 806
e 627 932
e 628 755
e 628 651
e 629 957
e 629 965
e 631 715
e 631 828
e 632 899
e 635 866
e 635 690
e 636 779
e 636 800
e 636 977
e 638 775
e 641 889
e 641 696
e 644 916
e 645 731
e 645 989
e 645 712
e 645 646
e 646 756
e 647 649
e 647 655
e 648 834
e 648 750
e 648 752
e 651 842
e 651 856
e 651 673
e 651 794
e 652 711
e 652 857
e 653 890
e 655 944
e 655 917
e 655 681
e 656 889
e 656 808
e 658 670
e 659 704
e 659 703
e 660 933
e 661 811
e 661 910
e 663 847
e 663 855
e 664 808
e 664 769
e 664 676
e 664 825
e 665 973
e 668 737
e 668 930
e 668 690
e 668 799
e 669 783
e 670 990
e 673 899
e 676 876
e 677 726
e 679 938
e 679 795
e 680 935
e 681 982
e 682 784
e 682 737
e 684 815
e 684 882
e 685 953
e 686 718
e 686 705
e 686 726
e 686 790
e 687 837
e 687 815
e 688 765
e 688 986
e 689 980
e 690 966
e 690 867
e 690 798
e 692 921
e 692 772
e 693 982
e 694 826
e 694 800
e 694 775
e 696 917
e 696 844
e 696 958
e 701 938
e 701 778
e 701 750
e 703 767
e 704 930
e 707 820
e 708 740
e 708 821
e 709 754
e 709 844
e 710 767
e 711 883
e 713 998
e 717 877
e 717 851
e 717 827
e 718 807
e 721 857
e 722 872
e 723 996
e 723 747
e 724 772
e 725 882
e 726 960
e 726 752
e 727 883
e 727 1000
e 729 900
e 729 964
e 731 762
e 733 905
e 734 907
e 734 900
e 735 830
e 735 795
e 740 933
e 740 777
e 743 866
e 744 872
e 744 968
e 745 806
e 746 959
e 746 821
e 747 798
e 748 863
e 750 865
e 753 950
e 753 940
e 754 945
e 757 849
e 757 868
e 760 892
e 762 793
e 762 889
e 764 951
e 764 877
e 765 836
e 766 959
e 766 806
e 766 801
e 767 904
e 767 936
e 769 948
e 772 958
e 772 829
e 777 917
e 778 917
e 779 951
e 780 803
e 780 930
e 780 884
e 783 882
e 784 920
e 786 788
e 786 896
e 786 946
e 787 981
e 787 957
e 790 846
e 792 940
e 794 934
e 794 975
e 795 868
e 795 904
e 798 947
e 800 921
e 801 840
e 802 863
e 802 804
e 802 812
e 803 914
e 803 956
e 807 986
e 808 810
e 812 858
e 815 939
e 815 876
e 816 964
e 816 842
e 819 836
e 819 892
e 820 899
e 821 841
e 824 847
e 825 998
e 825 882
e 825 921
e 829 946
e 829 930
e 837 967
e 841 863
e 843 962
e 846 934
e 851 948
e 854 922
e 854 978
e 855 860
e 855 910
e 856 989
e 856 922
e 857 897
e 858 981
e 860 928
e 860 935
e 868 957
e 872 974
e 873 956
e 877 909
e 877 897
e 880 964
e 882 934
e 884 933
e 887 990
e 887 964
e 889 939
e 890 922
e 890 988
e 891 929
e 891 904
e 892 938
e 904 907
e 906 995
e 917 918
e 920 998
e 920 934
e 920 993
e 920 944
e 922 971
e 928 954
e 928 963
e 933 969
e 936 958
e 936 996
e 939 992
e 942 962
e 944 999
e 946 990
e 952 959
e 952 1000
e 953 986
e 957 998
e 960 967
e 961 969
e 966 988
e 972 991
e 979 990
e 988 995
